words_train/words_795_SAT.qaiger
aag 49 16 0 1 33
16
30
18
2
6
32
4
12
10
20
14
22
8
28
26
24
98
34 29 23
36 27 21
38 36 25
40 38 34
42 40 18
44 40 19
46 44 31
48 45 30
50 49 47
52 50 2
54 51 3
56 55 53
58 56 42
60 26 18
62 60 24
64 28 22
66 64 62
68 66 20
70 69 41
72 71 43
74 73 52
76 72 54
78 77 75
80 79 59
82 33 5
84 32 4
86 85 83
88 87 46
90 86 47
92 91 89
94 92 80
96 93 81
98 97 95
i0 1 x[7]
i1 2 z[6]
i2 2 z[0]
i3 1 x[0]
i4 1 x[2]
i5 2 z[7]
i6 1 x[1]
i7 1 x[5]
i8 1 x[4]
i9 2 z[1]
i10 1 x[6]
i11 2 z[2]
i12 1 x[3]
i13 2 z[5]
i14 2 z[4]
i15 2 z[3]
o0 bv[0]
c
simplified
  <=
    subtract
      xor
        << 6
          1 x
        1
      2 z
    << 1
      1
