words_train/words_795_SAT.qaiger.qdimacs
p cnf 49 100
a 1 2 3 4 5 6 7 8 0
e 9 10 11 12 13 14 15 16 17 18 19 20 21 22 23 24 25 26 27 28 29 30 31 32 33 34 35 36 37 38 39 40 41 42 43 44 45 46 47 48 49 0
14 11 17 0
-14 -17 0
-11 -17 0
13 10 18 0
-13 -18 0
-10 -18 0
-18 12 19 0
18 -19 0
-12 -19 0
-19 -17 20 0
19 -20 0
17 -20 0
-20 -9 21 0
20 -21 0
9 -21 0
-20 9 22 0
20 -22 0
-9 -22 0
-22 15 23 0
22 -23 0
-15 -23 0
22 -15 24 0
-22 -24 0
15 -24 0
24 23 25 0
-24 -25 0
-23 -25 0
-25 -1 26 0
25 -26 0
1 -26 0
25 1 27 0
-25 -27 0
-1 -27 0
27 26 28 0
-27 -28 0
-26 -28 0
-28 -21 29 0
28 -29 0
21 -29 0
-13 -9 30 0
13 -30 0
9 -30 0
-30 -12 31 0
30 -31 0
12 -31 0
-14 -11 32 0
14 -32 0
11 -32 0
-32 -31 33 0
32 -33 0
31 -33 0
-33 -10 34 0
33 -34 0
10 -34 0
34 20 35 0
-34 -35 0
-20 -35 0
35 21 36 0
-35 -36 0
-21 -36 0
36 -26 37 0
-36 -37 0
26 -37 0
-36 -27 38 0
36 -38 0
27 -38 0
38 37 39 0
-38 -39 0
-37 -39 0
39 29 40 0
-39 -40 0
-29 -40 0
16 2 41 0
-16 -41 0
-2 -41 0
-16 -2 42 0
16 -42 0
2 -42 0
42 41 43 0
-42 -43 0
-41 -43 0
43 -23 44 0
-43 -44 0
23 -44 0
-43 23 45 0
43 -45 0
-23 -45 0
45 44 46 0
-45 -46 0
-44 -46 0
-46 -40 47 0
46 -47 0
40 -47 0
46 40 48 0
-46 -48 0
-40 -48 0
48 47 49 0
-48 -49 0
-47 -49 0
49 0
